node
#name	v	h	weight
1	0	0	0
2	0	0	65945
3	0	0	0
4	0	0	95355
5	0	0	0
6	0	0	0
7	0	0	0
8	0	0	0
9	0	0	0
10	0	0	0
11	0	0	0
12	0	0	23286
13	0	0	0
14	0	0	0
15	0	0	0
16	0	0	0
17	0	0	0
18	0	0	0
19	0	0	0
20	0	0	0
21	0	0	57604
22	0	0	37939
23	0	0	0
24	0	0	0
25	0	0	42394
26	0	0	0
27	0	0	8339
28	0	0	0
29	0	0	3695
30	0	0	93821
31	0	0	0
32	0	0	0
33	0	0	0
34	0	0	0
35	0	0	0
36	0	0	0
37	0	0	86395
38	0	0	0
39	0	0	0
40	0	0	0
41	0	0	80124
42	0	0	74785
43	0	0	0
44	0	0	0
45	0	0	0
46	0	0	19294
47	0	0	0
48	0	0	0
49	0	0	0
50	0	0	0
51	0	0	0
52	0	0	0
53	0	0	0
54	0	0	0
55	0	0	0
56	0	0	0
57	0	0	0
58	0	0	22663
59	0	0	0
60	0	0	20746
61	0	0	0
62	0	0	0
63	0	0	67200
64	0	0	35756
65	0	0	0
66	0	0	0
67	0	0	0
68	0	0	0
69	0	0	0
70	0	0	60911
71	0	0	32668
72	0	0	0
73	0	0	0
74	0	0	0
75	0	0	0
76	0	0	0
77	0	0	0
78	0	0	0
79	0	0	38111
80	0	0	0
81	0	0	0
82	0	0	0
83	0	0	0
84	0	0	0
85	0	0	0
86	0	0	6262
87	0	0	0
88	0	0	0
89	0	0	0
90	0	0	63247
91	0	0	0
92	0	0	0
93	0	0	28449
94	0	0	0
95	0	0	89360
96	0	0	0
97	0	0	0
98	0	0	0
99	0	0	0
100	0	0	0
101	0	0	0
102	0	0	0
103	0	0	89250
104	0	0	51908
105	0	0	0
106	0	0	0
107	0	0	0
108	0	0	0
109	0	0	0
110	0	0	0
111	0	0	0
112	0	0	0
113	0	0	0
114	0	0	31639
115	0	0	0
116	0	0	0
117	0	0	0
118	0	0	0
119	0	0	0
120	0	0	18986
121	0	0	13013
122	0	0	63329
123	0	0	0
124	0	0	0
125	0	0	56302
126	0	0	0
127	0	0	0
128	0	0	0
129	0	0	0
130	0	0	0
131	0	0	44482
132	0	0	0
133	0	0	0
134	0	0	0
135	0	0	0
136	0	0	0
137	0	0	0
138	0	0	0
139	0	0	0
140	0	0	0
141	0	0	54195
142	0	0	0
143	0	0	0
144	0	0	0
145	0	0	55785
146	0	0	0
147	0	0	69114
148	0	0	10350
149	0	0	24433
150	0	0	0
151	0	0	0
152	0	0	0
153	0	0	7797
154	0	0	0
155	0	0	52279
156	0	0	1486
157	0	0	0
158	0	0	0
159	0	0	0
160	0	0	5382
161	0	0	0
162	0	0	0
163	0	0	96676
164	0	0	0
165	0	0	0
166	0	0	0
167	0	0	0
168	0	0	85129
169	0	0	0
170	0	0	0
171	0	0	0
172	0	0	81371
173	0	0	71042
174	0	0	0
175	0	0	0
176	0	0	0
177	0	0	0
178	0	0	7199
179	0	0	0
180	0	0	8685
181	0	0	0
182	0	0	0
183	0	0	0
184	0	0	0
185	0	0	0
186	0	0	33984
187	0	0	0
188	0	0	4869
189	0	0	49774
190	0	0	0
191	0	0	34904
192	0	0	0
193	0	0	0
194	0	0	0
195	0	0	0
196	0	0	0
197	0	0	0
198	0	0	0
199	0	0	0
200	0	0	0
201	0	0	0
202	0	0	0
203	0	0	0
204	0	0	0
205	0	0	35743
206	0	0	0
207	0	0	0
208	0	0	0
209	0	0	7026
210	0	0	0
211	0	0	0
212	0	0	0
213	0	0	0
214	0	0	0
215	0	0	0
216	0	0	2402
217	0	0	0
218	0	0	37307
219	0	0	81459
220	0	0	0
221	0	0	0
222	0	0	0
223	0	0	31124
224	0	0	0
225	0	0	0
226	0	0	0
227	0	0	0
228	0	0	0
229	0	0	75569
230	0	0	54850
231	0	0	0
232	0	0	0
233	0	0	0
234	0	0	0
235	0	0	0
236	0	0	86117
237	0	0	0
238	0	0	0
239	0	0	0
240	0	0	0
241	0	0	0
242	0	0	0
243	0	0	0
244	0	0	60276
245	0	0	79126
246	0	0	0
247	0	0	0
248	0	0	72227
249	0	0	0
250	0	0	0
251	0	0	0
252	0	0	0
253	0	0	42317
254	0	0	32304
255	0	0	0
256	0	0	0
257	0	0	0
258	0	0	0
259	0	0	0
260	0	0	0
261	0	0	0
262	0	0	0
263	0	0	0
264	0	0	0
265	0	0	9240
266	0	0	0
267	0	0	0
268	0	0	0
269	0	0	0
270	0	0	0
271	0	0	0
272	0	0	0
273	0	0	0
274	0	0	26583
275	0	0	0
276	0	0	0
277	0	0	0
278	0	0	0
279	0	0	0
280	0	0	0
281	0	0	37379
282	0	0	0
283	0	0	84848
284	0	0	0
285	0	0	0
286	0	0	0
287	0	0	87746
288	0	0	0
289	0	0	0
290	0	0	0
291	0	0	0
292	0	0	87402
293	0	0	0
294	0	0	0
295	0	0	0
296	0	0	0
297	0	0	59149
298	0	0	0
299	0	0	85733
300	0	0	0
301	0	0	60699
302	0	0	0
303	0	0	0
304	0	0	0
305	0	0	0
306	0	0	0
307	0	0	0
308	0	0	64692
309	0	0	0
310	0	0	0
311	0	0	0
312	0	0	0
313	0	0	0
314	0	0	0
315	0	0	0
316	0	0	0
317	0	0	0
318	0	0	0
319	0	0	1245
320	0	0	0
321	0	0	0
322	0	0	0
323	0	0	0
324	0	0	3773
325	0	0	786
326	0	0	0
327	0	0	0
328	0	0	0
329	0	0	0
330	0	0	0
331	0	0	24764
332	0	0	0
333	0	0	25931
334	0	0	50571
335	0	0	59163
336	0	0	5394
337	0	0	0
338	0	0	0
339	0	0	0
340	0	0	92974
341	0	0	0
342	0	0	82621
343	0	0	90806
344	0	0	0
345	0	0	0
346	0	0	0
347	0	0	0
348	0	0	0
349	0	0	0
350	0	0	95599
351	0	0	96023
352	0	0	45759
353	0	0	0
354	0	0	71690
355	0	0	0
356	0	0	0
357	0	0	0
358	0	0	77014
359	0	0	0
360	0	0	0
361	0	0	0
362	0	0	0
363	0	0	18102
364	0	0	28110
365	0	0	19702
366	0	0	78618
367	0	0	0
368	0	0	72085
369	0	0	0
370	0	0	0
371	0	0	0
372	0	0	0
373	0	0	91623
374	0	0	0
375	0	0	0
376	0	0	0
377	0	0	29949
378	0	0	93971
379	0	0	30014
380	0	0	0
381	0	0	12000
382	0	0	0
383	0	0	0
384	0	0	14215
385	0	0	0
386	0	0	0
387	0	0	82489
388	0	0	0
389	0	0	0
390	0	0	0
391	0	0	0
392	0	0	0
393	0	0	68454
394	0	0	0
395	0	0	80953
396	0	0	0
397	0	0	39212
398	0	0	0
399	0	0	69161
400	0	0	0
link
#link	x	y	length	RIN	notes
1	1	13	14278	na	na
2	1	48	11770	na	na
3	1	155	70214	na	na
4	1	158	27815	na	na
5	1	173	18983	na	na
6	1	372	56151	na	na
7	2	7	19757	na	na
8	2	13	49674	na	na
9	2	21	88004	na	na
10	2	145	17440	na	na
11	2	220	67283	na	na
12	2	234	69113	na	na
13	2	273	54498	na	na
14	2	380	53180	na	na
15	2	394	38800	na	na
16	3	104	6926	na	na
17	3	144	25269	na	na
18	3	245	52938	na	na
19	3	311	28007	na	na
20	4	108	16577	na	na
21	4	114	7395	na	na
22	4	147	77830	na	na
23	4	172	38128	na	na
24	4	174	93251	na	na
25	4	191	82294	na	na
26	4	274	29480	na	na
27	5	38	36811	na	na
28	5	65	53817	na	na
29	5	89	82327	na	na
30	5	96	79682	na	na
31	5	126	85765	na	na
32	5	160	51634	na	na
33	5	172	50560	na	na
34	5	198	45917	na	na
35	5	205	1148	na	na
36	5	309	20234	na	na
37	6	111	18496	na	na
38	6	286	91402	na	na
39	6	387	70587	na	na
40	7	11	74486	na	na
41	7	102	88371	na	na
42	7	184	74578	na	na
43	7	285	51199	na	na
44	7	314	18576	na	na
45	8	64	92188	na	na
46	8	104	53000	na	na
47	8	147	36534	na	na
48	8	160	55673	na	na
49	8	214	66343	na	na
50	8	386	73908	na	na
51	9	49	75458	na	na
52	9	81	12759	na	na
53	9	98	75041	na	na
54	9	266	86113	na	na
55	9	312	62335	na	na
56	9	355	27002	na	na
57	10	237	48931	na	na
58	10	265	21851	na	na
59	10	311	87014	na	na
60	10	372	7697	na	na
61	11	36	41362	na	na
62	11	112	63192	na	na
63	11	192	89142	na	na
64	11	260	30417	na	na
65	12	82	87574	na	na
66	12	211	12926	na	na
67	13	52	80409	na	na
68	13	134	25690	na	na
69	14	154	77061	na	na
70	14	189	81685	na	na
71	15	73	82254	na	na
72	15	83	65000	na	na
73	15	114	95496	na	na
74	15	123	67061	na	na
75	15	176	66110	na	na
76	15	218	43748	na	na
77	15	303	30608	na	na
78	15	319	71286	na	na
79	15	375	97455	na	na
80	16	68	3284	na	na
81	16	146	15598	na	na
82	16	287	57595	na	na
83	17	72	71059	na	na
84	17	106	80628	na	na
85	17	153	5895	na	na
86	17	192	27417	na	na
87	17	230	91889	na	na
88	17	302	85054	na	na
89	18	32	63193	na	na
90	18	150	93403	na	na
91	18	199	59778	na	na
92	18	292	31735	na	na
93	18	331	73045	na	na
94	18	388	49730	na	na
95	18	397	85768	na	na
96	19	43	44637	na	na
97	19	45	30405	na	na
98	19	71	91919	na	na
99	19	123	70711	na	na
100	19	152	65673	na	na
101	19	215	99455	na	na
102	19	356	74996	na	na
103	19	373	96473	na	na
104	19	384	33665	na	na
105	20	26	56108	na	na
106	20	51	66441	na	na
107	20	141	31235	na	na
108	21	53	10485	na	na
109	21	96	79154	na	na
110	21	162	33786	na	na
111	21	167	8635	na	na
112	21	188	54867	na	na
113	21	220	50304	na	na
114	21	237	56075	na	na
115	21	368	60240	na	na
116	22	205	33232	na	na
117	22	230	94584	na	na
118	22	268	30182	na	na
119	22	278	55306	na	na
120	22	388	41830	na	na
121	23	248	64821	na	na
122	23	256	84661	na	na
123	24	40	74746	na	na
124	24	69	57088	na	na
125	24	191	50940	na	na
126	24	229	39586	na	na
127	24	279	7302	na	na
128	24	396	7656	na	na
129	25	39	37329	na	na
130	25	67	6206	na	na
131	25	112	76570	na	na
132	25	212	70754	na	na
133	25	300	19402	na	na
134	25	314	28121	na	na
135	25	366	8051	na	na
136	25	392	35447	na	na
137	26	189	29664	na	na
138	26	205	77594	na	na
139	26	244	13047	na	na
140	26	298	15642	na	na
141	26	313	10756	na	na
142	26	316	97484	na	na
143	26	332	85226	na	na
144	26	351	74005	na	na
145	26	358	67695	na	na
146	26	360	52921	na	na
147	27	224	91692	na	na
148	27	274	57042	na	na
149	27	293	46163	na	na
150	27	356	90195	na	na
151	28	124	60042	na	na
152	28	133	42048	na	na
153	28	144	52496	na	na
154	28	173	11474	na	na
155	28	347	68751	na	na
156	29	74	2160	na	na
157	29	129	32084	na	na
158	29	169	6932	na	na
159	29	306	965	na	na
160	29	313	94796	na	na
161	29	348	89531	na	na
162	30	87	59678	na	na
163	30	147	46519	na	na
164	30	268	26178	na	na
165	30	339	13811	na	na
166	30	341	84595	na	na
167	30	345	76717	na	na
168	31	108	68821	na	na
169	31	113	35834	na	na
170	31	190	89380	na	na
171	31	399	33812	na	na
172	32	198	43876	na	na
173	33	79	28709	na	na
174	33	142	24072	na	na
175	33	183	2598	na	na
176	33	207	62027	na	na
177	33	253	10451	na	na
178	33	333	53573	na	na
179	34	96	1079	na	na
180	34	112	16554	na	na
181	34	144	66697	na	na
182	34	165	77643	na	na
183	34	186	77091	na	na
184	34	237	55707	na	na
185	34	248	85874	na	na
186	34	360	59702	na	na
187	34	361	13132	na	na
188	35	102	58654	na	na
189	35	119	75380	na	na
190	35	194	28120	na	na
191	35	311	81161	na	na
192	35	324	68619	na	na
193	35	337	91192	na	na
194	35	385	63008	na	na
195	36	53	64716	na	na
196	36	73	72636	na	na
197	36	100	69057	na	na
198	36	147	83558	na	na
199	36	232	93287	na	na
200	36	276	13178	na	na
201	36	288	81622	na	na
202	36	368	61522	na	na
203	37	41	5135	na	na
204	37	56	93016	na	na
205	37	71	84006	na	na
206	37	101	53516	na	na
207	37	238	18523	na	na
208	37	258	61503	na	na
209	37	259	45800	na	na
210	37	260	8619	na	na
211	38	92	38379	na	na
212	38	146	93629	na	na
213	38	178	84151	na	na
214	38	181	71420	na	na
215	38	187	92941	na	na
216	38	208	61188	na	na
217	38	288	29550	na	na
218	38	299	34208	na	na
219	38	327	85325	na	na
220	38	339	1696	na	na
221	38	386	10737	na	na
222	39	77	30460	na	na
223	39	119	67716	na	na
224	39	149	44214	na	na
225	39	225	26951	na	na
226	39	334	69424	na	na
227	39	399	45858	na	na
228	40	47	42982	na	na
229	40	132	65142	na	na
230	40	356	38415	na	na
231	41	57	27958	na	na
232	41	183	73646	na	na
233	41	281	22101	na	na
234	41	300	22744	na	na
235	42	120	25782	na	na
236	42	291	78804	na	na
237	42	326	93003	na	na
238	42	363	85811	na	na
239	43	130	68445	na	na
240	43	160	77280	na	na
241	43	172	27261	na	na
242	43	191	8392	na	na
243	43	315	29190	na	na
244	43	377	62181	na	na
245	44	58	31130	na	na
246	44	69	56064	na	na
247	44	131	96707	na	na
248	44	207	10577	na	na
249	44	291	18940	na	na
250	44	336	76245	na	na
251	44	364	65439	na	na
252	45	65	42547	na	na
253	45	96	78941	na	na
254	45	103	75707	na	na
255	45	110	69631	na	na
256	45	135	7513	na	na
257	45	149	14049	na	na
258	45	244	76233	na	na
259	45	261	78396	na	na
260	45	385	96574	na	na
261	46	202	52083	na	na
262	46	203	41282	na	na
263	46	257	22325	na	na
264	46	329	93989	na	na
265	46	366	70	na	na
266	47	96	61950	na	na
267	47	202	62883	na	na
268	47	206	88342	na	na
269	47	211	4320	na	na
270	47	243	25258	na	na
271	47	250	8425	na	na
272	47	255	21352	na	na
273	47	290	80577	na	na
274	47	351	59688	na	na
275	47	381	15027	na	na
276	48	211	47789	na	na
277	48	352	60643	na	na
278	48	381	41671	na	na
279	48	389	76168	na	na
280	49	94	57090	na	na
281	49	137	77909	na	na
282	49	151	69581	na	na
283	49	153	43116	na	na
284	49	260	87846	na	na
285	49	269	94305	na	na
286	49	315	44043	na	na
287	49	354	53443	na	na
288	50	73	20383	na	na
289	50	400	94106	na	na
290	51	52	62592	na	na
291	51	158	96108	na	na
292	51	186	46660	na	na
293	51	218	41389	na	na
294	51	371	93154	na	na
295	52	77	74593	na	na
296	52	133	75499	na	na
297	52	228	39169	na	na
298	52	261	18846	na	na
299	52	348	39359	na	na
300	53	72	65376	na	na
301	53	158	752	na	na
302	53	189	83896	na	na
303	53	287	42150	na	na
304	54	127	51541	na	na
305	54	131	55621	na	na
306	54	178	61545	na	na
307	54	325	70615	na	na
308	55	69	82905	na	na
309	55	141	86246	na	na
310	55	230	23504	na	na
311	55	265	24285	na	na
312	55	298	80042	na	na
313	56	69	22854	na	na
314	56	92	32747	na	na
315	56	134	85662	na	na
316	56	222	20942	na	na
317	56	229	76463	na	na
318	56	269	95395	na	na
319	56	294	55480	na	na
320	57	97	13345	na	na
321	57	153	54083	na	na
322	57	263	25549	na	na
323	57	309	37662	na	na
324	57	317	89800	na	na
325	58	111	46201	na	na
326	58	232	93467	na	na
327	58	342	35922	na	na
328	58	368	91390	na	na
329	58	399	14340	na	na
330	59	78	23698	na	na
331	59	97	23287	na	na
332	60	260	1455	na	na
333	60	320	40076	na	na
334	60	346	33542	na	na
335	61	156	26472	na	na
336	61	162	36760	na	na
337	61	333	8874	na	na
338	61	382	37460	na	na
339	62	108	71828	na	na
340	62	199	70404	na	na
341	62	253	31921	na	na
342	62	293	26864	na	na
343	62	310	9422	na	na
344	62	379	33734	na	na
345	63	181	29856	na	na
346	63	379	23296	na	na
347	64	136	31921	na	na
348	64	144	42649	na	na
349	64	186	12676	na	na
350	64	397	90500	na	na
351	65	97	73398	na	na
352	65	223	57475	na	na
353	65	230	77307	na	na
354	65	239	25359	na	na
355	65	346	45948	na	na
356	65	353	60091	na	na
357	65	394	7503	na	na
358	66	146	55526	na	na
359	66	329	86108	na	na
360	67	78	72987	na	na
361	67	145	16724	na	na
362	67	215	40073	na	na
363	67	268	45492	na	na
364	67	308	16054	na	na
365	67	343	48594	na	na
366	67	346	55073	na	na
367	67	349	49482	na	na
368	67	353	49370	na	na
369	67	360	78075	na	na
370	67	391	99879	na	na
371	67	395	55948	na	na
372	68	85	74547	na	na
373	68	87	74427	na	na
374	68	382	85011	na	na
375	69	225	39394	na	na
376	69	240	43586	na	na
377	69	319	58846	na	na
378	69	382	59880	na	na
379	70	118	74164	na	na
380	70	256	36734	na	na
381	70	266	80615	na	na
382	70	315	50345	na	na
383	70	328	27239	na	na
384	70	356	98117	na	na
385	70	381	44166	na	na
386	71	72	19174	na	na
387	71	126	41924	na	na
388	71	186	77603	na	na
389	71	223	80957	na	na
390	71	346	54098	na	na
391	72	93	31595	na	na
392	72	119	32684	na	na
393	72	162	38683	na	na
394	72	171	44648	na	na
395	72	202	69832	na	na
396	72	203	81250	na	na
397	72	275	9536	na	na
398	72	289	62278	na	na
399	72	380	41662	na	na
400	72	400	87814	na	na
401	73	108	77842	na	na
402	73	199	57918	na	na
403	73	252	66735	na	na
404	73	377	43188	na	na
405	74	109	86818	na	na
406	74	122	96457	na	na
407	74	183	75289	na	na
408	74	213	62760	na	na
409	74	243	92828	na	na
410	74	265	67703	na	na
411	74	281	98070	na	na
412	74	382	99058	na	na
413	75	160	19746	na	na
414	75	189	49462	na	na
415	75	253	11009	na	na
416	75	265	6832	na	na
417	75	360	42851	na	na
418	76	157	19324	na	na
419	76	189	19366	na	na
420	77	93	98800	na	na
421	77	216	16023	na	na
422	78	85	95947	na	na
423	78	129	1699	na	na
424	78	202	85247	na	na
425	78	224	25854	na	na
426	78	252	47783	na	na
427	78	285	5733	na	na
428	78	292	44078	na	na
429	78	319	23838	na	na
430	78	321	67916	na	na
431	78	323	85846	na	na
432	78	324	79806	na	na
433	78	397	86998	na	na
434	79	231	62597	na	na
435	79	263	57479	na	na
436	79	265	91245	na	na
437	79	275	55452	na	na
438	79	379	98336	na	na
439	80	333	6305	na	na
440	80	382	92115	na	na
441	81	87	12971	na	na
442	81	93	5033	na	na
443	81	113	97195	na	na
444	81	115	10166	na	na
445	81	120	19631	na	na
446	81	201	44144	na	na
447	81	339	52156	na	na
448	81	351	12251	na	na
449	82	171	47014	na	na
450	82	248	83559	na	na
451	82	355	93877	na	na
452	83	99	39410	na	na
453	83	146	72997	na	na
454	83	167	76516	na	na
455	83	209	92664	na	na
456	83	232	13945	na	na
457	83	389	38410	na	na
458	84	90	38792	na	na
459	84	150	25344	na	na
460	84	262	95348	na	na
461	84	285	68859	na	na
462	84	286	49751	na	na
463	84	322	87969	na	na
464	84	343	21882	na	na
465	85	192	26634	na	na
466	85	219	6090	na	na
467	85	221	32725	na	na
468	85	241	78360	na	na
469	85	304	70081	na	na
470	85	305	15635	na	na
471	86	165	89846	na	na
472	86	178	87729	na	na
473	86	187	16684	na	na
474	86	198	99399	na	na
475	87	104	6486	na	na
476	87	129	49761	na	na
477	87	148	51819	na	na
478	87	206	21283	na	na
479	87	229	92598	na	na
480	88	127	60578	na	na
481	88	146	73543	na	na
482	88	255	46727	na	na
483	88	258	15820	na	na
484	88	310	39471	na	na
485	89	164	69195	na	na
486	90	96	84026	na	na
487	90	114	68601	na	na
488	90	192	91301	na	na
489	90	306	16202	na	na
490	91	97	66424	na	na
491	91	242	86900	na	na
492	91	292	34579	na	na
493	92	127	20117	na	na
494	92	134	97723	na	na
495	92	143	4725	na	na
496	92	321	89408	na	na
497	92	358	28010	na	na
498	93	133	55887	na	na
499	93	372	61027	na	na
500	94	308	40636	na	na
501	95	223	1886	na	na
502	95	261	62444	na	na
503	95	335	8864	na	na
504	96	239	69833	na	na
505	96	337	73978	na	na
506	96	345	32993	na	na
507	96	378	70799	na	na
508	97	106	86421	na	na
509	97	127	57733	na	na
510	97	191	11803	na	na
511	97	214	63456	na	na
512	97	373	38761	na	na
513	98	120	31108	na	na
514	98	195	85423	na	na
515	98	232	31889	na	na
516	99	103	81071	na	na
517	99	107	82973	na	na
518	99	153	74391	na	na
519	99	250	25920	na	na
520	99	265	68532	na	na
521	99	269	55188	na	na
522	99	356	42451	na	na
523	99	378	48226	na	na
524	99	399	25767	na	na
525	100	105	94773	na	na
526	100	120	52130	na	na
527	100	198	52358	na	na
528	100	334	84466	na	na
529	101	130	83732	na	na
530	101	200	85067	na	na
531	101	222	24097	na	na
532	101	230	55030	na	na
533	101	233	79162	na	na
534	101	257	26451	na	na
535	101	389	65225	na	na
536	101	398	90992	na	na
537	102	103	73139	na	na
538	102	240	27477	na	na
539	102	249	93602	na	na
540	103	255	3920	na	na
541	103	291	62451	na	na
542	103	305	47048	na	na
543	104	173	55252	na	na
544	104	242	68874	na	na
545	104	251	85370	na	na
546	104	352	43231	na	na
547	104	367	2739	na	na
548	105	152	14621	na	na
549	105	181	17645	na	na
550	105	227	53021	na	na
551	105	310	45017	na	na
552	106	273	62273	na	na
553	106	330	63197	na	na
554	107	197	23091	na	na
555	107	237	45326	na	na
556	107	285	19678	na	na
557	107	300	31290	na	na
558	108	126	95137	na	na
559	108	176	96599	na	na
560	109	196	79636	na	na
561	109	335	24206	na	na
562	110	216	1900	na	na
563	110	218	49740	na	na
564	111	130	61102	na	na
565	111	159	80289	na	na
566	111	284	4699	na	na
567	112	146	15305	na	na
568	112	199	16314	na	na
569	112	204	43337	na	na
570	112	209	82869	na	na
571	112	230	5981	na	na
572	112	232	49319	na	na
573	113	134	43294	na	na
574	113	147	30292	na	na
575	113	379	66842	na	na
576	113	388	45153	na	na
577	114	216	92672	na	na
578	114	335	33272	na	na
579	114	353	83724	na	na
580	115	367	92806	na	na
581	116	136	5872	na	na
582	116	290	20495	na	na
583	116	299	59405	na	na
584	117	249	48991	na	na
585	117	272	16192	na	na
586	117	363	56318	na	na
587	117	374	77474	na	na
588	117	393	75750	na	na
589	118	152	58768	na	na
590	118	185	89027	na	na
591	118	221	51694	na	na
592	119	157	60875	na	na
593	119	163	16683	na	na
594	119	178	68654	na	na
595	119	230	10435	na	na
596	119	237	26149	na	na
597	119	271	90793	na	na
598	120	129	93744	na	na
599	120	134	69974	na	na
600	120	200	12320	na	na
601	120	237	65227	na	na
602	120	318	10145	na	na
603	121	279	89587	na	na
604	121	373	8038	na	na
605	123	172	63223	na	na
606	123	175	22823	na	na
607	123	262	48340	na	na
608	123	289	44706	na	na
609	123	291	93046	na	na
610	123	305	57914	na	na
611	123	386	12728	na	na
612	124	162	52270	na	na
613	125	208	92141	na	na
614	125	217	60648	na	na
615	125	322	18441	na	na
616	126	295	21343	na	na
617	126	309	24267	na	na
618	126	312	13685	na	na
619	126	355	85587	na	na
620	127	340	50597	na	na
621	127	369	48817	na	na
622	127	378	39814	na	na
623	128	341	89859	na	na
624	128	355	62555	na	na
625	128	357	93630	na	na
626	129	172	21653	na	na
627	129	225	58285	na	na
628	130	343	50365	na	na
629	131	135	53897	na	na
630	131	348	55378	na	na
631	132	230	62345	na	na
632	132	243	28022	na	na
633	132	303	13857	na	na
634	132	382	33064	na	na
635	133	163	76683	na	na
636	133	243	52424	na	na
637	133	318	91993	na	na
638	133	326	65584	na	na
639	133	338	72227	na	na
640	134	227	51591	na	na
641	134	228	63030	na	na
642	134	273	96331	na	na
643	134	302	77394	na	na
644	135	192	48344	na	na
645	135	266	95634	na	na
646	135	303	11940	na	na
647	135	339	76051	na	na
648	136	139	90952	na	na
649	136	169	40293	na	na
650	136	197	88036	na	na
651	136	233	15544	na	na
652	137	138	9384	na	na
653	137	315	75139	na	na
654	137	337	43181	na	na
655	137	367	64011	na	na
656	138	184	39792	na	na
657	138	194	85249	na	na
658	138	205	79244	na	na
659	138	219	91349	na	na
660	138	277	70393	na	na
661	138	365	25660	na	na
662	139	226	41153	na	na
663	139	275	58052	na	na
664	139	284	56498	na	na
665	139	337	14111	na	na
666	140	240	2952	na	na
667	140	288	77436	na	na
668	140	322	83568	na	na
669	141	314	38080	na	na
670	141	341	6817	na	na
671	141	357	84578	na	na
672	142	190	37373	na	na
673	142	253	92568	na	na
674	142	271	45629	na	na
675	142	314	28350	na	na
676	142	388	61992	na	na
677	143	196	11621	na	na
678	143	247	11032	na	na
679	143	265	71739	na	na
680	143	335	35222	na	na
681	144	287	65644	na	na
682	144	338	11768	na	na
683	145	193	26220	na	na
684	145	270	5545	na	na
685	145	339	75308	na	na
686	146	152	33973	na	na
687	146	238	78538	na	na
688	146	301	84334	na	na
689	147	166	18601	na	na
690	147	193	80769	na	na
691	147	212	21544	na	na
692	147	344	47011	na	na
693	148	173	24547	na	na
694	148	257	89666	na	na
695	148	279	93875	na	na
696	148	359	16785	na	na
697	148	375	82416	na	na
698	149	166	70030	na	na
699	149	194	19477	na	na
700	149	269	65045	na	na
701	149	352	19836	na	na
702	150	190	2121	na	na
703	150	327	66748	na	na
704	150	389	3294	na	na
705	151	176	68528	na	na
706	151	198	36042	na	na
707	151	301	36507	na	na
708	151	319	49164	na	na
709	152	199	85226	na	na
710	152	252	31257	na	na
711	152	316	17399	na	na
712	153	187	77118	na	na
713	153	219	81786	na	na
714	153	294	10919	na	na
715	153	345	44116	na	na
716	153	354	96764	na	na
717	153	369	15325	na	na
718	154	161	71421	na	na
719	154	391	44695	na	na
720	154	400	55248	na	na
721	155	206	41062	na	na
722	155	230	45256	na	na
723	155	322	38311	na	na
724	155	330	18149	na	na
725	155	366	5100	na	na
726	155	373	82101	na	na
727	156	164	93163	na	na
728	156	266	8663	na	na
729	156	348	59103	na	na
730	157	158	21157	na	na
731	157	195	92508	na	na
732	157	214	40477	na	na
733	157	371	49667	na	na
734	158	243	89795	na	na
735	158	296	44940	na	na
736	158	369	70612	na	na
737	159	213	91260	na	na
738	159	312	12780	na	na
739	160	245	99391	na	na
740	160	283	69621	na	na
741	160	314	67456	na	na
742	160	344	42190	na	na
743	161	188	52077	na	na
744	161	256	65589	na	na
745	161	311	14651	na	na
746	161	343	58178	na	na
747	161	397	20911	na	na
748	162	170	94376	na	na
749	162	188	6265	na	na
750	162	233	58670	na	na
751	162	281	49069	na	na
752	162	344	85654	na	na
753	162	373	59833	na	na
754	162	394	47170	na	na
755	163	184	74185	na	na
756	163	185	1224	na	na
757	163	268	20204	na	na
758	163	279	46757	na	na
759	163	349	92133	na	na
760	163	373	15790	na	na
761	164	208	67654	na	na
762	164	215	73953	na	na
763	164	292	709	na	na
764	164	314	76228	na	na
765	165	275	33962	na	na
766	165	302	75580	na	na
767	165	304	9542	na	na
768	165	339	47835	na	na
769	165	398	42442	na	na
770	166	191	30351	na	na
771	166	198	55667	na	na
772	166	252	86713	na	na
773	166	298	94635	na	na
774	166	347	88371	na	na
775	166	359	7810	na	na
776	167	265	59527	na	na
777	167	275	66701	na	na
778	167	395	22528	na	na
779	168	207	81008	na	na
780	168	227	40440	na	na
781	168	376	13384	na	na
782	169	179	45087	na	na
783	169	198	97651	na	na
784	169	242	30700	na	na
785	169	347	46872	na	na
786	169	374	45614	na	na
787	169	376	92487	na	na
788	169	386	65173	na	na
789	169	390	34375	na	na
790	169	400	76000	na	na
791	170	181	77269	na	na
792	170	190	8744	na	na
793	171	186	84434	na	na
794	171	204	48534	na	na
795	171	217	44258	na	na
796	172	262	595	na	na
797	172	336	50507	na	na
798	172	340	55323	na	na
799	173	260	19319	na	na
800	173	276	57698	na	na
801	173	324	41563	na	na
802	173	351	90348	na	na
803	173	353	31912	na	na
804	174	176	84761	na	na
805	174	185	16906	na	na
806	174	186	92674	na	na
807	174	246	33397	na	na
808	174	296	61888	na	na
809	175	244	15058	na	na
810	175	291	53225	na	na
811	175	388	90335	na	na
812	176	229	75196	na	na
813	176	245	3519	na	na
814	176	308	31952	na	na
815	176	311	14694	na	na
816	176	359	45261	na	na
817	177	218	15140	na	na
818	178	305	24560	na	na
819	179	229	91265	na	na
820	179	278	74923	na	na
821	180	199	71771	na	na
822	181	357	25182	na	na
823	182	227	91749	na	na
824	182	240	6938	na	na
825	182	317	6752	na	na
826	182	365	63742	na	na
827	182	383	47150	na	na
828	182	390	58061	na	na
829	183	285	7598	na	na
830	184	195	44534	na	na
831	185	206	19012	na	na
832	185	278	38438	na	na
833	185	309	90377	na	na
834	185	375	54449	na	na
835	185	395	11546	na	na
836	186	323	37518	na	na
837	187	235	34519	na	na
838	187	310	46234	na	na
839	187	321	40253	na	na
840	187	388	72192	na	na
841	188	326	35262	na	na
842	188	362	45559	na	na
843	189	279	45077	na	na
844	189	309	64064	na	na
845	189	370	81009	na	na
846	190	221	20535	na	na
847	190	308	33467	na	na
848	191	269	2074	na	na
849	192	212	49092	na	na
850	192	215	47695	na	na
851	192	281	71071	na	na
852	192	299	17308	na	na
853	192	307	93996	na	na
854	192	395	46178	na	na
855	193	307	517	na	na
856	193	353	29388	na	na
857	194	265	8999	na	na
858	194	302	25796	na	na
859	195	199	64013	na	na
860	195	202	96163	na	na
861	195	256	11420	na	na
862	195	310	96390	na	na
863	195	362	54226	na	na
864	196	213	59054	na	na
865	196	330	81356	na	na
866	196	361	46531	na	na
867	196	382	3605	na	na
868	197	202	49939	na	na
869	197	351	48383	na	na
870	197	384	20968	na	na
871	198	203	54669	na	na
872	198	271	36090	na	na
873	198	322	36832	na	na
874	199	221	26247	na	na
875	199	229	43986	na	na
876	199	308	43582	na	na
877	199	337	59685	na	na
878	199	355	47795	na	na
879	200	247	83245	na	na
880	200	307	31692	na	na
881	201	260	8249	na	na
882	201	346	45058	na	na
883	201	357	52836	na	na
884	201	368	76067	na	na
885	201	388	89347	na	na
886	202	208	18044	na	na
887	202	383	52734	na	na
888	203	224	45137	na	na
889	203	345	22797	na	na
890	203	347	14732	na	na
891	204	270	61478	na	na
892	205	223	99337	na	na
893	205	256	79983	na	na
894	205	268	61491	na	na
895	205	304	4076	na	na
896	205	326	63151	na	na
897	206	233	90540	na	na
898	206	244	2433	na	na
899	206	251	54095	na	na
900	206	301	1863	na	na
901	206	371	74689	na	na
902	206	390	10395	na	na
903	207	225	20682	na	na
904	207	309	41432	na	na
905	207	318	93607	na	na
906	207	335	49229	na	na
907	208	238	78633	na	na
908	208	289	12501	na	na
909	208	303	4014	na	na
910	208	315	52519	na	na
911	208	317	65020	na	na
912	208	329	92941	na	na
913	208	366	13024	na	na
914	208	390	5264	na	na
915	209	321	37108	na	na
916	209	349	28540	na	na
917	209	374	9722	na	na
918	209	400	83246	na	na
919	210	269	29912	na	na
920	210	311	58429	na	na
921	210	387	93638	na	na
922	211	260	10785	na	na
923	211	285	63718	na	na
924	211	294	55528	na	na
925	212	384	60758	na	na
926	212	393	21288	na	na
927	213	376	44258	na	na
928	213	383	49979	na	na
929	214	233	28706	na	na
930	214	243	36490	na	na
931	214	251	11079	na	na
932	214	303	56871	na	na
933	214	396	82386	na	na
934	214	397	87829	na	na
935	216	292	81682	na	na
936	217	305	49693	na	na
937	217	375	60615	na	na
938	217	390	8438	na	na
939	218	260	38462	na	na
940	218	288	78116	na	na
941	219	242	27408	na	na
942	219	264	94994	na	na
943	219	301	16686	na	na
944	220	325	83956	na	na
945	223	224	75704	na	na
946	223	354	53718	na	na
947	224	233	94772	na	na
948	226	264	23898	na	na
949	226	349	31144	na	na
950	226	351	43845	na	na
951	227	304	52339	na	na
952	227	319	71416	na	na
953	227	371	54387	na	na
954	227	386	89929	na	na
955	228	263	40388	na	na
956	228	322	40626	na	na
957	228	341	1295	na	na
958	230	246	37108	na	na
959	230	257	5155	na	na
960	230	289	48630	na	na
961	231	257	63271	na	na
962	231	263	21650	na	na
963	231	267	45281	na	na
964	231	306	39334	na	na
965	231	318	12841	na	na
966	233	266	64942	na	na
967	233	306	34843	na	na
968	234	333	23420	na	na
969	235	306	77758	na	na
970	235	318	18397	na	na
971	236	244	43420	na	na
972	236	249	28597	na	na
973	237	295	85240	na	na
974	237	382	38368	na	na
975	238	273	87822	na	na
976	238	340	30845	na	na
977	239	251	98602	na	na
978	240	352	95238	na	na
979	241	301	34788	na	na
980	241	322	99994	na	na
981	241	338	43009	na	na
982	242	245	40206	na	na
983	242	278	72681	na	na
984	242	284	5460	na	na
985	243	255	10479	na	na
986	243	267	73080	na	na
987	244	324	33845	na	na
988	244	347	53917	na	na
989	245	303	71185	na	na
990	246	283	18352	na	na
991	247	281	68208	na	na
992	247	370	79197	na	na
993	248	249	72673	na	na
994	248	254	25336	na	na
995	248	306	84248	na	na
996	248	310	86065	na	na
997	248	319	74803	na	na
998	248	343	62743	na	na
999	249	399	93537	na	na
1000	251	278	28144	na	na
1001	251	388	73904	na	na
1002	252	258	270	na	na
1003	252	275	14605	na	na
1004	252	303	63314	na	na
1005	252	330	53969	na	na
1006	252	332	17283	na	na
1007	253	254	15595	na	na
1008	254	347	69560	na	na
1009	254	368	74220	na	na
1010	254	381	6056	na	na
1011	254	394	75151	na	na
1012	254	396	49371	na	na
1013	255	315	97810	na	na
1014	255	375	12124	na	na
1015	256	262	87246	na	na
1016	256	280	93831	na	na
1017	257	274	47989	na	na
1018	257	379	49435	na	na
1019	258	318	43266	na	na
1020	260	281	34788	na	na
1021	260	310	33497	na	na
1022	260	330	72168	na	na
1023	261	262	29353	na	na
1024	261	309	21951	na	na
1025	261	315	70217	na	na
1026	261	368	39850	na	na
1027	261	390	68832	na	na
1028	263	285	27518	na	na
1029	264	311	61659	na	na
1030	264	316	12579	na	na
1031	264	346	18658	na	na
1032	265	312	3073	na	na
1033	265	359	57247	na	na
1034	266	286	7606	na	na
1035	266	324	54126	na	na
1036	266	367	88815	na	na
1037	266	368	71361	na	na
1038	267	275	93769	na	na
1039	267	328	86803	na	na
1040	268	309	99588	na	na
1041	269	294	14799	na	na
1042	269	357	30136	na	na
1043	270	279	19593	na	na
1044	270	316	89742	na	na
1045	271	310	83978	na	na
1046	271	361	72105	na	na
1047	271	377	50669	na	na
1048	272	379	44066	na	na
1049	273	325	82531	na	na
1050	275	285	56931	na	na
1051	275	387	37287	na	na
1052	276	289	65385	na	na
1053	277	294	29550	na	na
1054	277	383	3787	na	na
1055	277	390	14054	na	na
1056	278	337	38617	na	na
1057	278	390	64064	na	na
1058	278	399	79960	na	na
1059	279	334	93135	na	na
1060	280	370	57640	na	na
1061	281	329	39231	na	na
1062	281	359	74994	na	na
1063	281	363	88689	na	na
1064	282	291	91065	na	na
1065	282	295	38987	na	na
1066	282	381	37670	na	na
1067	283	342	8398	na	na
1068	284	295	22884	na	na
1069	284	362	57115	na	na
1070	284	380	61308	na	na
1071	285	332	48671	na	na
1072	285	345	55467	na	na
1073	286	365	91403	na	na
1074	286	384	6918	na	na
1075	286	390	60952	na	na
1076	286	399	61204	na	na
1077	287	319	54342	na	na
1078	287	340	72194	na	na
1079	288	384	93430	na	na
1080	288	399	56367	na	na
1081	289	342	34131	na	na
1082	289	365	25645	na	na
1083	290	291	38392	na	na
1084	290	314	48136	na	na
1085	290	357	29223	na	na
1086	290	362	79454	na	na
1087	292	364	13595	na	na
1088	293	294	85812	na	na
1089	293	354	29512	na	na
1090	293	393	56388	na	na
1091	294	338	85979	na	na
1092	295	349	98040	na	na
1093	296	366	73990	na	na
1094	297	310	43900	na	na
1095	297	351	18865	na	na
1096	297	385	170	na	na
1097	298	319	12248	na	na
1098	298	341	98195	na	na
1099	299	360	68319	na	na
1100	299	395	9188	na	na
1101	300	321	56711	na	na
1102	301	312	63927	na	na
1103	301	349	4998	na	na
1104	301	386	22309	na	na
1105	302	399	64079	na	na
1106	303	396	1361	na	na
1107	304	334	83553	na	na
1108	304	336	38522	na	na
1109	305	330	81591	na	na
1110	305	339	51234	na	na
1111	306	328	73680	na	na
1112	308	344	10476	na	na
1113	309	335	13840	na	na
1114	309	379	65591	na	na
1115	310	327	12059	na	na
1116	310	379	68806	na	na
1117	311	317	20008	na	na
1118	311	319	88814	na	na
1119	311	397	43564	na	na
1120	312	351	10511	na	na
1121	313	337	21896	na	na
1122	313	368	78254	na	na
1123	314	343	96404	na	na
1124	314	352	11684	na	na
1125	314	354	29310	na	na
1126	315	348	98353	na	na
1127	315	357	85784	na	na
1128	315	396	23273	na	na
1129	316	331	90236	na	na
1130	317	356	96123	na	na
1131	319	365	393	na	na
1132	319	399	8868	na	na
1133	320	394	17550	na	na
1134	321	352	14059	na	na
1135	321	396	92282	na	na
1136	323	375	88260	na	na
1137	323	388	70148	na	na
1138	323	391	52451	na	na
1139	323	396	19130	na	na
1140	325	352	75292	na	na
1141	326	327	56062	na	na
1142	326	341	8474	na	na
1143	326	393	77551	na	na
1144	327	393	69448	na	na
1145	328	343	89465	na	na
1146	329	368	74070	na	na
1147	329	387	61825	na	na
1148	329	395	16496	na	na
1149	330	352	43298	na	na
1150	330	354	59794	na	na
1151	330	357	64427	na	na
1152	330	397	921	na	na
1153	331	333	40557	na	na
1154	331	386	68536	na	na
1155	332	337	58489	na	na
1156	333	379	47758	na	na
1157	333	388	89750	na	na
1158	334	344	93068	na	na
1159	334	345	426	na	na
1160	335	337	13368	na	na
1161	336	361	77132	na	na
1162	337	344	40959	na	na
1163	337	346	16829	na	na
1164	337	393	3960	na	na
1165	338	384	27507	na	na
1166	339	352	80067	na	na
1167	340	359	75943	na	na
1168	341	361	73591	na	na
1169	341	373	7032	na	na
1170	342	394	2324	na	na
1171	343	366	29766	na	na
1172	343	367	72097	na	na
1173	343	383	74234	na	na
1174	345	359	81879	na	na
1175	346	378	63576	na	na
1176	347	350	76328	na	na
1177	349	350	41371	na	na
1178	349	358	5013	na	na
1179	349	372	75326	na	na
1180	351	376	19280	na	na
1181	353	367	59729	na	na
1182	354	356	59924	na	na
1183	355	373	33926	na	na
1184	358	359	23729	na	na
1185	365	386	67756	na	na
1186	366	400	94183	na	na
1187	367	388	17822	na	na
1188	369	387	17749	na	na
1189	371	389	20038	na	na
1190	372	396	65299	na	na
1191	374	390	77829	na	na
1192	374	394	89120	na	na
1193	374	396	77541	na	na
1194	385	387	59465	na	na
1195	389	390	94204	na	na
1196	389	391	50742	na	na
ring
